#######################



#######################
Set parameter TimeLimit to value 300
Set parameter SoftMemLimit to value 125
Set parameter MIPFocus to value 2
Set parameter LogFile to value 1003-MIPFocus2-Presolve2-TimeLimit300-k16x240-1.log
Set parameter Presolve to value 2
Set parameter Seed to value 1
Using license file /opt/gurobi/gurobi.lic

Gurobi Optimizer version 10.0.3 build v10.0.3rc0 (linux64)
Copyright (c) 2023, Gurobi Optimization, LLC

Read MPS format model from file /miplib2010/k16x240.mps.bz2
Reading time = 0.00 seconds
k16x240: 256 rows, 480 columns, 960 nonzeros

CPU model: Intel(R) Xeon(R) E-2388G CPU @ 3.20GHz, instruction set [SSE2|AVX|AVX2|AVX512]
Thread count: 8 physical cores, 16 logical processors, using up to 16 threads

Optimize a model with 256 rows, 480 columns and 960 nonzeros
Model fingerprint: 0x4e80885f
Variable types: 240 continuous, 240 integer (240 binary)
Coefficient statistics:
  Matrix range     [1e+00, 1e+03]
  Objective range  [1e+00, 1e+03]
  Bounds range     [1e+00, 1e+03]
  RHS range        [4e+00, 4e+02]
Found heuristic solution: objective 18783.000000
Presolve time: 0.00s
Presolved: 256 rows, 480 columns, 960 nonzeros
Variable types: 240 continuous, 240 integer (240 binary)
Root relaxation presolve removed 241 rows and 240 columns
Root relaxation presolved: 15 rows, 240 columns, 450 nonzeros


Root relaxation: objective 2.769838e+03, 16 iterations, 0.00 seconds (0.00 work units)

    Nodes    |    Current Node    |     Objective Bounds      |     Work
 Expl Unexpl |  Obj  Depth IntInf | Incumbent    BestBd   Gap | It/Node Time

     0     0 2769.83800    0   14 18783.0000 2769.83800  85.3%     -    0s
H    0     0                    11359.000000 2769.83800  75.6%     -    0s
H    0     0                    11302.000000 8116.87580  28.2%     -    0s
H    0     0                    11261.000000 8116.87580  27.9%     -    0s
H    0     0                    11240.000000 8116.87580  27.8%     -    0s
H    0     0                    11192.000000 8116.87580  27.5%     -    0s
H    0     0                    11164.000000 8116.87580  27.3%     -    0s
     0     0 8116.87580    0   26 11164.0000 8116.87580  27.3%     -    0s
H    0     0                    11077.000000 8116.87580  26.7%     -    0s
H    0     0                    11055.000000 8116.87580  26.6%     -    0s
H    0     0                    10923.000000 8571.49855  21.5%     -    0s
     0     0 8571.49855    0   28 10923.0000 8571.49855  21.5%     -    0s
     0     0 8595.10166    0   26 10923.0000 8595.10166  21.3%     -    0s
     0     0 8727.63179    0   22 10923.0000 8727.63179  20.1%     -    0s
H    0     0                    10919.000000 8727.63179  20.1%     -    0s
H    0     0                    10779.000000 8787.11384  18.5%     -    0s
H    0     0                    10711.000000 8787.11384  18.0%     -    0s
     0     0 8787.11384    0   20 10711.0000 8787.11384  18.0%     -    0s
     0     0 8815.58274    0   35 10711.0000 8815.58274  17.7%     -    0s
     0     0 8819.37917    0   35 10711.0000 8819.37917  17.7%     -    0s
     0     0 8959.50821    0   35 10711.0000 8959.50821  16.4%     -    0s
     0     0 8995.58787    0   19 10711.0000 8995.58787  16.0%     -    0s
     0     0 9015.72763    0   36 10711.0000 9015.72763  15.8%     -    0s
     0     0 9025.10252    0   35 10711.0000 9025.10252  15.7%     -    0s
     0     0 9083.53860    0   35 10711.0000 9083.53860  15.2%     -    0s
     0     0 9091.64814    0   38 10711.0000 9091.64814  15.1%     -    0s
H    0     0                    10678.000000 9091.64814  14.9%     -    0s
     0     0 9114.59249    0   30 10678.0000 9114.59249  14.6%     -    0s
     0     0 9123.51057    0   31 10678.0000 9123.51057  14.6%     -    0s
     0     0 9138.61270    0   34 10678.0000 9138.61270  14.4%     -    0s
     0     0 9138.61270    0   34 10678.0000 9138.61270  14.4%     -    0s
     0     2 9138.61270    0   34 10678.0000 9138.61270  14.4%     -    0s
H  269   228                    10674.000000 9234.23537  13.5%  32.0    0s
 26802 10642 10628.8632   33   27 10674.0000 10000.1167  6.31%  23.0    5s
 75329 20217 10438.8788   31   34 10674.0000 10203.8814  4.40%  23.7   10s
 116274 20324     cutoff   33      10674.0000 10328.4020  3.24%  24.0   15s
 157808 11531 10500.7402   40   22 10674.0000 10463.0053  1.98%  23.9   20s

Cutting planes:
  Gomory: 1
  Lift-and-project: 9
  Cover: 84
  Implied bound: 17
  MIR: 162
  Flow cover: 294
  Flow path: 31
  Inf proof: 5
  Zero half: 11
  Network: 48
  Relax-and-lift: 1

Explored 177840 nodes (4153301 simplex iterations) in 21.99 seconds (37.35 work units)
Thread count was 16 (of 16 available processors)

Solution count 10: 10674 10678 10711 ... 11192

Optimal solution found (tolerance 1.00e-04)
Best objective 1.067400000000e+04, best bound 1.067400000000e+04, gap 0.0000%
